z3_origin/DDC_ProveIneq_ISSAC05_AmerMathMonthly10347LHSb.txt
unsat
(:max-memory                   18.62
 :memory                       18.32
 :nlsat-arith-var              2
 :nlsat-atoms                  14
 :nlsat-bool-var               3
 :nlsat-clauses                9
 :nlsat-conflicts              4
 :nlsat-irrational-assignments 1
 :nlsat-propagations           24
 :nlsat-stages                 4
 :num-allocs                   97507
 :rlimit-count                 9706
 :time                         0.01
 :total-time                   0.03)
